c read Graph
c width = 59
c time = 321 ms
c width = 7
c time = 437 ms
c width = 6
c time = 1328 ms
c width = 6
c time = 4483 ms
s td 66 7 72
b 1 1 2 13
b 2 2 3 13 14
b 3 10 11 23 24
b 4 3 13 14 25
b 5 10 23 24 36
b 6 37 49 50 62
b 7 48 59 60 71
b 8 37 50 62 63
b 9 48 59 70 71
b 10 3 4 5 16
b 11 3 5 16 27 37 38
b 12 5 6 16 17 27 37 38
b 13 6 16 17 27 28 37 38
b 14 6 17 27 28 37 38 39
b 15 6 17 28 37 38 39 50
b 16 6 17 28 37 39 50 63
b 17 6 17 28 39 50 51 63
b 18 6 17 28 39 40 51 63
b 19 6 17 28 29 40 51 63
b 20 6 17 18 29 40 51 63
b 21 6 7 18 29 40 51 63
b 22 7 18 29 40 51 52 63
b 23 7 18 29 40 41 52 63
b 24 7 18 29 30 41 52 63
b 25 7 18 19 30 41 52 63
b 26 7 8 19 30 41 52 63
b 27 8 19 30 41 52 63 64
b 28 8 19 30 41 52 53 64
b 29 8 19 30 41 42 53 64
b 30 8 19 30 31 42 53 64
b 31 8 19 20 31 42 53 64
b 32 8 9 20 31 42 53 64
b 33 9 20 31 42 53 64 66
b 34 9 20 31 42 53 55 66
b 35 9 20 31 42 44 55 66
b 36 9 20 31 33 44 55 66
b 37 9 20 22 33 44 55 66
b 38 9 22 33 44 55 66 68
b 39 9 22 33 44 55 57 68
b 40 9 22 33 44 46 57 68
b 41 9 22 33 35 46 57 68
b 42 9 22 35 46 48 57 68
b 43 3 16 26 27 37 38
b 44 3 15 16 26 27 37
b 45 3 15 25 26 37
b 46 3 14 15 25 26
b 47 31 42 43 44 55
b 48 55 66 67 68
b 49 53 64 65 66
b 50 44 55 56 57 68
b 51 42 53 54 55 66
b 52 33 44 45 46 57
b 53 20 31 32 33 44
b 54 35 46 48 57 68 70
b 55 57 68 69 70
b 56 35 46 48 57 58 70
b 57 35 46 47 48 58 70
b 58 47 48 58 59 70
b 59 9 22 35 36 48
b 60 9 10 22 35 36
b 61 10 22 23 35 36
b 62 22 33 34 35 46
b 63 9 20 21 22 33
b 64 60 71 72
b 65 49 61 62
b 66 11 12 24
1 2
2 4
3 66
3 5
4 46
5 61
6 65
6 8
7 64
7 9
8 16
9 58
10 11
11 43
11 12
12 13
13 14
14 15
15 16
16 17
17 18
18 19
19 20
20 21
21 22
22 23
23 24
24 25
25 26
26 27
27 28
28 29
29 30
30 31
31 32
32 33
33 49
33 34
34 51
34 35
35 47
35 36
36 53
36 37
37 63
37 38
38 48
38 39
39 50
39 40
40 52
40 41
41 62
41 42
42 59
42 54
43 44
44 45
45 46
54 55
54 56
56 57
57 58
59 60
60 61
